
Gurobi 12.0.3 (linux64) logging started Fri Mar 27 10:10:31 2026

Set parameter LogFile to value "/home/solar-wind/WT_Solar_results_bigM100000_thread4/case24_ieee_rts_theta0.1_epsilon0.05_gurobi_seed10000_num_gen38_N_WDR300_load_scaling_factor1_EIFICA_T24_num_Solar5_num_WT10.txt"
Gurobi Optimizer version 12.0.3 build v12.0.3rc0 (linux64 - "Ubuntu 22.04.5 LTS")

CPU model: Intel(R) Xeon(R) Platinum 8378A CPU @ 3.00GHz, instruction set [SSE2|AVX|AVX2|AVX512]
Thread count: 32 physical cores, 64 logical processors, using up to 4 threads

Non-default parameters:
TimeLimit  14400
MIPGap  0.001
Seed  10000
Threads  4

Academic license 2721591 - for non-commercial use only - registered to fa___@mails.neu.edu.cn
Optimize a model with 771068 rows, 2125 columns and 74982328 nonzeros
Model fingerprint: 0x51d40756
Model has 912 quadratic objective terms
Coefficient statistics:
  Matrix range     [5e-07, 7e+01]
  Objective range  [2e+01, 6e+01]
  QObjective range [4e-03, 2e-02]
  Bounds range     [0e+00, 0e+00]
  RHS range        [5e-02, 1e+03]
Presolve removed 618409 rows and 0 columns (presolve time = 6s)...
Presolve removed 619283 rows and 0 columns
Presolve time: 7.54s
Presolved: 151785 rows, 2999 columns, 4221460 nonzeros
Presolved model has 912 quadratic objective terms
Elapsed ordering time = 13s
Elapsed ordering time = 15s
Ordering time: 24.00s
Elapsed ordering time = 24s
Elapsed ordering time = 25s
Elapsed ordering time = 31s
Elapsed ordering time = 34s
Elapsed ordering time = 35s
Elapsed ordering time = 40s
Elapsed ordering time = 40s
Elapsed ordering time = 46s
Elapsed ordering time = 50s
Elapsed ordering time = 52s
Elapsed ordering time = 55s
Ordering time: 57.87s

Barrier statistics:
 Dense cols : 1157
 AA' NZ     : 1.629e+08
 Factor NZ  : 1.042e+09 (roughly 8.0 GB of memory)
 Factor Ops : 1.971e+13 (roughly 100 seconds per iteration)
 Threads    : 4

                  Objective                Residual
Iter       Primal          Dual         Primal    Dual     Compl     Time
   0   5.84644741e+08 -3.10053381e+08  3.70e+04 1.00e+03  9.93e+05   144s
   1   4.83929123e+08 -2.42673678e+08  3.26e+04 8.82e+02  8.77e+05   145s
   2   4.73230394e+08 -2.43255533e+08  3.21e+04 8.68e+02  8.75e+05   145s
   3   4.52645669e+08 -2.41391948e+08  3.12e+04 8.42e+02  8.48e+05   145s
   4   4.11183211e+08 -2.79619920e+08  2.92e+04 7.86e+02  8.12e+05   145s
   5   3.76393835e+08 -3.03049856e+08  2.75e+04 7.37e+02  7.80e+05   146s
   6   3.23850625e+08 -3.12869647e+08  2.47e+04 6.60e+02  6.99e+05   146s
   7   2.81811612e+08 -3.49123833e+08  2.25e+04 5.95e+02  6.52e+05   146s
   8   2.39921654e+08 -3.65046031e+08  2.00e+04 5.27e+02  5.79e+05   146s
   9   2.00192537e+08 -4.22055494e+08  1.76e+04 4.56e+02  5.44e+05   146s
  10   1.71744177e+08 -4.76745047e+08  1.57e+04 4.02e+02  5.16e+05   147s
  11   1.44204485e+08 -5.04465898e+08  1.37e+04 3.47e+02  4.48e+05   147s
  12   1.21779475e+08 -5.23100342e+08  1.21e+04 3.01e+02  3.90e+05   147s
  13   1.04094803e+08 -5.42384657e+08  1.07e+04 2.63e+02  3.42e+05   147s
  14   9.00556508e+07 -5.62696757e+08  9.51e+03 2.32e+02  3.03e+05   147s
  15   7.56160499e+07 -5.83762145e+08  8.26e+03 2.00e+02  2.61e+05   147s
  16   6.10395416e+07 -6.10097958e+08  6.95e+03 1.65e+02  2.17e+05   147s
  17   5.12146858e+07 -6.29849929e+08  6.00e+03 1.41e+02  1.86e+05   148s
  18   4.17281886e+07 -6.48488343e+08  5.02e+03 1.17e+02  1.55e+05   148s
  19   3.20167745e+07 -6.66019693e+08  3.96e+03 9.12e+01  1.22e+05   148s
  20   2.30838433e+07 -6.75949773e+08  2.93e+03 6.68e+01  9.10e+04   148s
  21   1.31567925e+07 -6.72885327e+08  1.70e+03 3.82e+01  5.77e+04   148s
  22   9.50316212e+06 -6.54897645e+08  1.41e+03 2.73e+01  4.20e+04   148s
  23   5.80674700e+06 -6.09156121e+08  1.05e+03 1.60e+01  2.70e+04   148s
  24   4.07335600e+06 -5.43769361e+08  7.32e+02 1.08e+01  1.86e+04   148s
  25   2.97297988e+06 -4.79015446e+08  5.23e+02 7.52e+00  1.33e+04   148s
  26   2.27489212e+06 -4.21998028e+08  3.85e+02 5.46e+00  9.81e+03   149s
  27   1.80988266e+06 -3.71006765e+08  2.88e+02 4.03e+00  7.36e+03   149s
  28   1.29180210e+06 -3.59573652e+08  1.47e+02 2.30e+00  5.37e+03   149s
  29   1.06912770e+06 -3.03846181e+08  9.56e+01 1.50e+00  3.80e+03   149s
  30   8.98162855e+05 -2.43236478e+08  5.15e+01 8.29e-01  2.46e+03   149s
  31   8.13535781e+05 -2.01658390e+08  3.07e+01 4.77e-01  1.76e+03   150s
  32   7.84428931e+05 -1.69950289e+08  2.17e+01 3.42e-01  1.39e+03   150s
  33   7.64833005e+05 -1.51161965e+08  1.50e+01 2.39e-01  1.17e+03   150s
  34   7.55919309e+05 -1.41831837e+08  1.17e+01 1.86e-01  1.06e+03   151s
  35   7.51437579e+05 -1.27761618e+08  9.66e+00 1.53e-01  9.40e+02   152s
  36   7.47246012e+05 -1.09117132e+08  7.28e+00 1.12e-01  7.85e+02   152s
  37   7.45788263e+05 -9.97304589e+07  5.63e+00 8.96e-02  7.11e+02   153s
  38   7.44627360e+05 -8.91605193e+07  4.75e+00 7.57e-02  6.40e+02   155s
  39   7.43962127e+05 -7.88822354e+07  4.22e+00 6.72e-02  5.69e+02   159s
  40   7.43576837e+05 -7.84694792e+07  3.76e+00 6.02e-02  5.61e+02   162s
  41   7.38882383e+05 -2.42345254e+07  1.07e-01 3.13e-01  1.61e+02   212s
  42   7.34380860e+05  2.05369510e+05  1.86e-03 7.07e-03  3.40e+00   289s
  43   6.66111795e+05  5.13218644e+05  3.24e-04 1.23e-03  9.82e-01   338s
  44   6.38157225e+05  5.72120538e+05  4.35e-05 1.69e-04  4.24e-01   780s
  45   6.31333378e+05  6.06076275e+05  6.08e-06 7.78e-06  1.62e-01  1566s
  46   6.29136090e+05  6.18094129e+05  7.77e-07 9.94e-07  7.09e-02  1650s
  47   6.28318512e+05  6.22379722e+05  6.90e-08 8.82e-08  3.82e-02  1734s
  48   6.27694688e+05  6.25695494e+05  3.07e-10 3.82e-10  1.28e-02  1819s
  49   6.27489327e+05  6.26769005e+05  2.18e-10 3.27e-11  4.63e-03  1905s
  50   6.27404055e+05  6.27215323e+05  7.78e-10 6.89e-11  1.21e-03  1992s
  51   6.27378665e+05  6.27345909e+05  5.53e-10 3.75e-12  2.10e-04  2075s
  52   6.27373380e+05  6.27372780e+05  2.99e-09 2.11e-11  3.85e-06  2154s
  53   6.27373281e+05  6.27373280e+05  6.93e-09 5.15e-12  7.43e-09  2233s

Barrier solved model in 53 iterations and 2233.42 seconds (1450.41 work units)
Optimal objective 6.27373281e+05

